Route #1: 91 88 84 82 83 90
Route #2: 86 85 81 78 77
Route #3: 93 22 24 0 53 56 58 60 0 34 37 31 51 50 52 47 0 48 43 42 41 72 87
Route #4: 67 63 0 62 74 61 64 66 0 57 59 44 46 45 0 76 71 70 73 80 79 96
Route #5: 27 30 29 32 33 0 69 68 65 49 55 54 40 0 15 17 13 9 0 1 98 95 94 3 7
Route #6: 99 100 97 92 4 89 0 28 26 23 25 8
Route #7: 20 6 35 38 39 36 0 18 19 16 14 12 0 5 75 2 11 10 21
Cost: 15454
Optimal: True
